 ! ----------------------------------------------------------------------------
 ! Maximization problem - 14 variables, 4 constraints
 ! Initial process time : 0.00s (0.00s extraction + 0.00s propagation)
 !  . Log search space  : 0.0 (before), 0.0 (after)
 !  . Memory usage      : 301.9 kB (before), 301.9 kB (after)
 ! Using parallel search with 4 workers.
 ! ----------------------------------------------------------------------------
 !          Best Branches  Non-fixed    W       Branch decision
                        0         14                 -
 + New bound is 2
 *             2        0  0.00s               (gap is 0%)
 ! ----------------------------------------------------------------------------
 ! Search completed, 1 solution found.
 ! Best objective         : 2 (optimal - effective tol. is 0)
 ! Best bound             : 2
 ! Number of branches     : 0
 ! Number of fails        : 0
 ! Total memory usage     : 803.3 kB (760.6 kB CP Optimizer + 42.7 kB Concert)
 ! Time spent in solve    : 0.02s (0.01s engine + 0.00s extraction)
 ! Search speed (br. / s) : 0
 ! ----------------------------------------------------------------------------

